c ---- [ banner ] ------------------------------------------------------------
c
c Kissat SAT Solver
c 
c Copyright (c) 2021-2024 Armin Biere University of Freiburg
c Copyright (c) 2019-2021 Armin Biere Johannes Kepler University Linz
c 
c Version 4.0.1 43f02cf3e992cb44653b35e5cb26f93281552ae0
c gcc (Ubuntu 13.2.0-23ubuntu4) 13.2.0 -W -Wall -O3 -DNDEBUG
c Thu Sep 12 12:27:46 CEST 2024 Linux abryzen9 6.8.0-41-generic x86_64
c
c ---- [ parsing ] -----------------------------------------------------------
c
c opened and reading DIMACS file:
c
c   /data/artifact/AMulet2.0_artifact/exp4/cnf_sopb_64/64_64_U_SP_CWT_KS_GenMul_sopb.cnf
c
c parsed 'p cnf 34226 143472' header
c closing input after reading 2845544 bytes (3 MB)
c finished parsing after 0.02 seconds
c
c ---- [ options ] -----------------------------------------------------------
c
c --stable=0                       (different from default '1')
c
c ---- [ solving ] -----------------------------------------------------------
c
c  seconds switched rate     size/glue tier1  binary           remaining
c         MB reductions conflicts size  tier2     irredundant
c          level restarts redundant glue  trail           variables
c
c *  0.02 10 0 0 0  0 0   0   0 0.0 0 0 0 0 0% 31225 112245 34223 100%
c (  0.04 13 0 0 0  0 0   0   0 0.0 0 0 0 0 0% 31225 112245 34223 100%
c .  0.05 13 0 0 0  0 0   0   0 0.0 0 0 0 0 0% 31221 112245 34223 100%
c c  0.11 19 0 0 0  0 0   0   0 0.0 0 0 0 0 0% 35649 105372 32026 94%
c d  0.11 19 0 0 0  0 0   0   0 0.0 0 0 0 0 0% 31255 105372 32026 94%
c =  0.15 19 0 0 0  0 0   0   0 0.0 0 0 0 0 0% 31208 105372 31412 92%
c d  0.16 19 0 0 0  0 0   0   0 0.0 0 0 0 0 0% 29980 105372 31412 92%
c f  0.25 19 0 0 0  0 0   0   0 0.0 0 0 0 0 0% 31561 101113 33363 97%
c e  0.42 25 0 0 0  0 0   0   0 0.0 0 0 0 0 0% 23439 106601 24453 71%
c )  0.42 25 0 0 0  0 0   0   0 0.0 0 0 0 0 0% 23439 106601 24453 71%
c {  0.44 26 0 0 0  0 0   0   0 0.0 0 0 2 6 0% 23439 106601 24453 71%
c -  0.62 26 120 0 1 320 36 1000 718 2.6 10 4 3 6 14% 23569 106594 24453 71%
c -  0.88 26 172 0 2 582 41 2000 1452 2.6 12 5 3 8 20% 23623 106586 24453 71%
c c  1.17 24 176 0 2 700 44 2507 1902 3.2 16 5 3 9 22% 24302 105245 24005 70%
c d  1.18 24 176 0 2 700 44 2507 1902 3.2 16 5 3 9 22% 23406 105245 24005 70%
c u  1.20 24 176 0 2 700 44 2507 1464 3.2 16 5 3 9 22% 21638 105245 24005 70%
c v  1.23 24 176 0 2 700 44 2507 1255 3.2 16 5 3 9 22% 21639 105245 24005 70%
c w  1.26 24 176 0 2 700 44 2507 1255 3.2 16 5 3 9 22% 21639 105245 24005 70%
c x  1.28 24 176 0 2 700 44 2507 1255 3.2 16 5 3 9 22% 21737 104997 24005 70%
c =  1.37 24 176 0 2 700 44 2507 1255 3.2 16 5 3 9 22% 21871 104997 23938 70%
c
c  seconds   switched   rate       size/glue tier1    binary           remaining
c         MB  reductions conflicts       size  tier2      irredundant
c           level restarts    redundant    glue   trail           variables
c
c d  1.38 24 176 0 2 700 44 2507 1240 3.2 16 5 3 9 22% 21727 104997 23937 70%
c t  1.39 24 176 0 2 700 44 2507 1240 3.2 16 5 3 9 22% 21726 104997 23937 70%
c f  1.43 24 176 0 2 700 44 2507 1240 3.2 16 5 3 9 22% 23171 102030 24898 73%
c u  1.51 24 176 0 2 700 44 2507 1172 3.2 16 5 3 9 22% 23177 102030 24898 73%
c v  1.52 24 176 0 2 700 44 2507 1130 3.2 16 5 3 9 22% 23177 102030 24898 73%
c w  1.55 24 176 0 2 700 44 2507 1130 3.2 16 5 3 9 22% 23177 102030 24898 73%
c x  1.57 24 176 0 2 700 44 2507 1130 3.2 16 5 3 9 22% 23179 101970 24898 73%
c =  1.64 24 176 0 2 700 44 2507 1130 3.2 16 5 3 9 22% 23611 101966 24682 72%
c d  1.64 24 176 0 2 700 44 2507 1130 3.2 16 5 3 9 22% 23167 101966 24682 72%
c t  1.65 24 176 0 2 700 44 2507 1130 3.2 16 5 3 9 22% 23166 101966 24682 72%
c f  1.68 24 176 0 2 700 44 2507 1130 3.2 16 5 3 9 22% 23440 101340 24909 73%
c -  1.77 24 223 0 3 768 40 3415 1621 2.9 14 5 3 8 24% 23498 101339 24909 73%
c -  2.00 24 254 0 4 970 38 5147 2778 3.0 15 5 3 7 23% 23619 101332 24909 73%
c -  2.40 24 277 0 5 1207 38 7147 4060 2.9 15 5 3 7 24% 23723 101329 24909 73%
c d  2.56 24 279 0 5 1272 38 7717 4528 3.1 16 5 3 7 24% 23724 101329 24892 73%
c u  2.61 24 279 0 5 1272 38 7717 3523 3.1 16 5 3 7 24% 23731 101329 24892 73%
c v  2.65 24 279 0 5 1272 38 7717 3215 3.1 16 5 3 7 24% 23733 101329 24892 73%
c w  2.71 24 279 0 5 1272 38 7717 3213 3.1 16 5 3 7 24% 23733 101329 24892 73%
c =  2.84 24 279 0 5 1272 38 7717 3213 3.1 16 5 3 7 24% 25375 101313 24071 70%
c d  2.86 24 279 0 5 1272 38 7717 3201 3.1 16 5 3 7 24% 23661 101313 24069 70%
c
c  seconds   switched    rate       size/glue tier1    binary           remaining
c         MB  reductions  conflicts       size  tier2      irredundant
c           level  restarts    redundant    glue   trail           variables
c
c t  2.88 24 279 0 5 1272 38 7717 3201 3.1 16 5 3 7 24% 23412 101313 24069 70%
c f  2.93 24 279 0 5 1272 38 7717 3201 3.1 16 5 3 7 24% 23743 100550 24322 71%
c c  3.02 24 279 0 5 1272 38 7717 3201 3.1 16 5 3 7 24% 23747 100545 24320 71%
c d  3.03 24 279 0 5 1272 38 7717 3201 3.1 16 5 3 7 24% 23743 100545 24320 71%
c u  3.06 24 279 0 5 1272 38 7717 2960 3.1 16 5 3 7 24% 23743 100545 24320 71%
c v  3.09 24 279 0 5 1272 38 7717 2872 3.1 16 5 3 7 24% 23743 100545 24320 71%
c w  3.14 24 279 0 5 1272 38 7717 2871 3.1 16 5 3 7 24% 23743 100545 24320 71%
c x  3.15 24 279 0 5 1272 38 7717 2871 3.1 16 5 3 7 24% 23745 100322 24320 71%
c =  3.25 24 279 0 5 1272 38 7717 2871 3.1 16 5 3 7 24% 24013 100320 24186 71%
c d  3.26 24 279 0 5 1272 38 7717 2869 3.1 16 5 3 7 24% 23706 100320 24185 71%
c t  3.28 24 279 0 5 1272 38 7717 2869 3.1 16 5 3 7 24% 23692 100320 24185 71%
c f  3.33 24 279 0 5 1272 38 7717 2869 3.1 16 5 3 7 24% 23811 100067 24282 71%
c -  3.57 24 274 0 6 1449 36 9383 3808 3.1 16 5 3 8 24% 23882 100060 24282 71%
c o  3.71 24 266 0 6 1531 36 10002 4356 3.3 18 6 3 8 25% 23898 100059 24282 71%
c -  3.92 24 262 0 7 1664 34 11833 5051 3.3 18 6 2 7 24% 23988 100054 24282 71%
c s  4.05 24 262 0 7 1724 34 12531 5606 3.2 18 6 2 7 24% 24041 92427 24282 71%
c e  4.15 24 262 0 7 1724 34 12531 5606 3.2 18 6 2 7 24% 21991 94171 22591 66%
c 2  4.15 24 262 0 7 1724 34 12531 5606 3.2 18 6 2 7 24% 21989 94171 22591 66%
c s  4.15 24 262 0 7 1724 34 12531 5606 3.2 18 6 2 7 24% 22001 93849 22591 66%
c e  4.16 24 262 0 7 1724 34 12531 5606 3.2 18 6 2 7 24% 21900 93929 22540 66%
c
c  seconds   switched    rate        size/glue tier1    binary          remaining
c         MB  reductions   conflicts       size  tier2      irredundant
c           level  restarts     redundant    glue   trail          variables
c
c ^  4.16 24 262 0 7 1724 34 12531 5606 3.2 18 6 2 7 24% 21900 93929 22540 66%
c -  4.37 24 259 0 8 1848 33 14478 5918 3.2 18 6 2 7 24% 21991 93927 22540 66%
c d  4.50 24 253 0 8 1939 32 15805 7085 3.1 17 6 2 7 24% 22007 93926 22521 66%
c u  4.53 24 253 0 8 1939 32 15805 6014 3.1 17 6 2 7 24% 22014 93926 22521 66%
c v  4.57 24 253 0 8 1939 32 15805 5285 3.1 17 6 2 7 24% 22016 93926 22521 66%
c w  4.58 24 253 0 8 1939 32 15805 5285 3.1 17 6 2 7 24% 22016 93926 22521 66%
c x  4.61 24 253 0 8 1939 32 15805 5285 3.1 17 6 2 7 24% 22020 93782 22521 66%
c =  4.73 24 253 0 8 1939 32 15805 5285 3.1 17 6 2 7 24% 22320 93782 22371 65%
c d  4.74 24 253 0 8 1939 32 15805 5256 3.1 17 6 2 7 24% 21960 93782 22371 65%
c t  4.75 24 253 0 8 1939 32 15805 5256 3.1 17 6 2 7 24% 21936 93782 22371 65%
c f  4.80 24 253 0 8 1939 32 15805 5256 3.1 17 6 2 7 24% 22001 93422 22492 66%
c b  4.82 24 253 0 8 1939 32 15805 5256 3.1 17 6 2 7 24% 22001 93422 22491 66%
c u  4.84 24 253 0 8 1939 32 15805 5052 3.1 17 6 2 7 24% 22003 93422 22491 66%
c v  4.89 24 253 0 8 1939 32 15805 4791 3.1 17 6 2 7 24% 22003 93422 22491 66%
c w  4.92 24 253 0 8 1939 32 15805 4769 3.1 17 6 2 7 24% 22003 93422 22491 66%
c x  4.95 24 253 0 8 1939 32 15805 4768 3.1 17 6 2 7 24% 22018 93315 22491 66%
c =  5.06 24 253 0 8 1939 32 15805 4768 3.1 17 6 2 7 24% 23170 93315 21915 64%
c d  5.07 24 253 0 8 1939 32 15805 4742 3.1 17 6 2 7 24% 21873 93315 21915 64%
c t  5.09 24 253 0 8 1939 32 15805 4742 3.1 17 6 2 7 24% 21792 93315 21915 64%
c f  5.11 24 253 0 8 1939 32 15805 4742 3.1 17 6 2 7 24% 21745 93135 21965 64%
c
c  seconds   switched    rate        size/glue tier1    binary          remaining
c         MB  reductions   conflicts       size  tier2      irredundant
c           level  restarts     redundant    glue   trail          variables
c
c -  5.22 24 246 0 9 1993 31 17308 5118 3.0 17 5 2 7 24% 21809 93134 21965 64%
c o  5.48 24 247 0 9 2185 30 20134 7524 3.0 16 5 2 7 24% 21911 93132 21965 64%
c -  5.53 24 246 0 10 2229 30 20308 6743 3.0 17 5 2 7 24% 21916 93132 21965 64%
c -  5.84 24 242 0 11 2412 28 23471 8245 3.0 16 5 2 7 24% 22041 93126 21965 64%
c s  6.11 24 242 0 11 2565 28 25042 9560 3.1 17 6 2 7 24% 22103 90242 21965 64%
c e  6.23 24 242 0 11 2565 28 25042 9560 3.1 17 6 2 7 24% 19130 94457 20357 59%
c 2  6.23 24 242 0 11 2565 28 25042 9560 3.1 17 6 2 7 24% 19117 94457 20357 59%
c s  6.25 24 242 0 11 2565 28 25042 9560 3.1 17 6 2 7 24% 19187 93604 20357 59%
c e  6.26 24 242 0 11 2565 28 25042 9560 3.1 17 6 2 7 24% 19098 93740 20297 59%
c ^  6.26 24 242 0 11 2565 28 25042 9560 3.1 17 6 2 7 24% 19098 93740 20297 59%
c -  6.43 25 240 0 12 2677 28 26789 8382 3.0 17 5 2 7 24% 19167 93736 20297 59%
c c  6.50 25 240 0 12 2698 28 26939 8518 3.0 17 5 2 7 24% 19250 93445 20245 59%
c d  6.51 25 240 0 12 2698 28 26939 8426 3.0 17 5 2 7 24% 19109 93445 20223 59%
c u  6.54 25 240 0 12 2698 28 26939 7277 3.0 17 5 2 7 24% 19122 93445 20223 59%
c v  6.56 25 240 0 12 2698 28 26939 6477 3.0 17 5 2 7 24% 19125 93445 20223 59%
c w  6.57 25 240 0 12 2698 28 26939 6474 3.0 17 5 2 7 24% 19125 93445 20223 59%
c x  6.61 25 240 0 12 2698 28 26939 6471 3.0 17 5 2 7 24% 19183 92849 20223 59%
c =  6.76 25 240 0 12 2698 28 26939 6471 3.0 17 5 2 7 24% 19695 92839 19967 58%
c d  6.77 25 240 0 12 2698 28 26939 6399 3.0 17 5 2 7 24% 19149 92839 19967 58%
c t  6.78 25 240 0 12 2698 28 26939 6399 3.0 17 5 2 7 24% 19044 92839 19967 58%
c
c  seconds   switched     rate        size/glue tier1    binary          remaining
c         MB   reductions   conflicts       size  tier2      irredundant
c           level   restarts     redundant    glue   trail          variables
c
c f  6.85 25 240 0 12 2698 28 26939 6399 3.0 17 5 2 7 24% 19133 92365 20061 59%
c u  6.89 25 240 0 12 2698 28 26939 6116 3.0 17 5 2 7 24% 19134 92365 20061 59%
c v  6.91 25 240 0 12 2698 28 26939 5970 3.0 17 5 2 7 24% 19135 92365 20061 59%
c w  6.92 25 240 0 12 2698 28 26939 5967 3.0 17 5 2 7 24% 19135 92365 20061 59%
c x  6.96 25 240 0 12 2698 28 26939 5965 3.0 17 5 2 7 24% 19160 91510 20061 59%
c =  7.13 25 240 0 12 2698 28 26939 5965 3.0 17 5 2 7 24% 21478 91510 18902 55%
c d  7.13 25 240 0 12 2698 28 26939 5853 3.0 17 5 2 7 24% 19129 91510 18902 55%
c t  7.15 25 240 0 12 2698 28 26939 5853 3.0 17 5 2 7 24% 18864 91510 18902 55%
c f  7.19 25 240 0 12 2698 28 26939 5853 3.0 17 5 2 7 24% 18799 90907 18995 56%
c -  7.54 25 232 0 13 2963 27 30253 7847 3.0 16 6 2 7 24% 18871 90907 18995 56%
c -  8.09 25 224 0 14 3423 27 33858 9948 3.0 17 6 2 6 25% 18932 90905 18995 56%
c -  8.42 25 221 0 15 3680 27 37599 11579 3.0 17 6 2 6 24% 19032 90902 18995 56%
c o  8.65 25 220 0 15 3857 26 40136 13707 2.9 16 6 2 6 24% 19111 90901 18995 56%
c c  8.83 25 220 0 15 3980 26 41270 14676 2.9 17 6 2 6 24% 19189 90729 18950 55%
c d  8.84 25 220 0 15 3980 26 41270 14570 2.9 17 6 2 6 24% 19098 90729 18950 55%
c u  8.91 25 220 0 15 3980 26 41270 12591 2.9 17 6 2 6 24% 19099 90729 18950 55%
c v  8.97 25 220 0 15 3980 26 41270 11796 2.9 17 6 2 6 24% 19099 90729 18950 55%
c w  9.01 25 220 0 15 3980 26 41270 11793 2.9 17 6 2 6 24% 19099 90729 18950 55%
c x  9.08 26 220 0 15 3980 26 41270 11786 2.9 17 6 2 6 24% 19104 86026 18950 55%
c =  9.29 26 220 0 15 3980 26 41270 11786 2.9 17 6 2 6 24% 21310 86014 17847 52%
c
c  seconds   switched     rate         size/glue tier1    binary          remaining
c         MB   reductions   conflicts        size  tier2      irredundant
c           level   restarts      redundant    glue   trail          variables
c
c d  9.30 26 220 0 15 3980 26 41270 11590 2.9 17 6 2 6 24% 19046 86014 17845 52%
c t  9.31 26 220 0 15 3980 26 41270 11590 2.9 17 6 2 6 24% 18742 86014 17845 52%
c f  9.35 26 220 0 15 3980 26 41270 11590 2.9 17 6 2 6 24% 18721 85435 17942 52%
c u  9.43 26 220 0 15 3980 26 41270 10959 2.9 17 6 2 6 24% 18729 85435 17942 52%
c v  9.47 26 220 0 15 3980 26 41270 10074 2.9 17 6 2 6 24% 18731 85435 17942 52%
c w  9.50 26 220 0 15 3980 26 41270 10064 2.9 17 6 2 6 24% 18731 85435 17942 52%
c x  9.54 26 220 0 15 3980 26 41270 10062 2.9 17 6 2 6 24% 18743 79235 17942 52%
c =  9.70 26 220 0 15 3980 26 41270 10062 2.9 17 6 2 6 24% 18831 79235 17898 52%
c d  9.71 26 220 0 15 3980 26 41270 10026 2.9 17 6 2 6 24% 18737 79235 17898 52%
c t  9.72 26 220 0 15 3980 26 41270 10026 2.9 17 6 2 6 24% 18713 79235 17898 52%
c f  9.74 26 220 0 15 3980 26 41270 10026 2.9 17 6 2 6 24% 18713 79211 17902 52%
c -  9.78 26 220 0 16 4005 26 41471 8942 2.9 17 6 2 6 24% 18715 79211 17902 52%
c - 10.16 26 215 0 17 4302 26 45471 11002 2.9 16 6 2 6 25% 18799 79207 17902 52%
c - 10.65 26 211 0 18 4709 26 49595 13144 2.9 17 6 2 6 25% 18916 79205 17902 52%
c s 10.96 26 210 0 18 4946 26 52155 15357 2.9 17 6 2 6 25% 18979 76103 17902 52%
c e 11.04 26 210 0 18 4946 26 52155 15357 2.9 17 6 2 6 25% 16993 79672 16711 49%
c 2 11.04 26 210 0 18 4946 26 52155 15357 2.9 17 6 2 6 25% 16974 79672 16711 49%
c s 11.05 26 210 0 18 4946 26 52155 15357 2.9 17 6 2 6 25% 17001 79183 16711 49%
c e 11.06 26 210 0 18 4946 26 52155 15357 2.9 17 6 2 6 25% 16927 79299 16670 49%
c ^ 11.06 26 210 0 18 4946 26 52155 15357 2.9 17 6 2 6 25% 16927 79299 16670 49%
c
c  seconds   switched     rate         size/glue tier1    binary          remaining
c         MB   reductions   conflicts        size  tier2      irredundant
c           level   restarts      redundant    glue   trail          variables
c
c - 11.26 26 210 0 19 5077 25 53837 13662 2.9 17 6 2 6 25% 16956 79299 16670 49%
c - 11.72 26 207 0 20 5551 25 58196 15592 2.9 17 6 2 6 25% 17044 79299 16670 49%
c d 11.79 26 206 0 20 5595 25 58896 16107 2.9 17 6 2 6 25% 17023 79298 16653 49%
c u 11.84 26 206 0 20 5595 25 58896 13520 2.9 17 6 2 6 25% 17052 79298 16653 49%
c v 11.89 26 206 0 20 5595 25 58896 12068 2.9 17 6 2 6 25% 17053 79298 16653 49%
c w 11.92 26 206 0 20 5595 25 58896 12052 2.9 17 6 2 6 25% 17053 79298 16653 49%
c x 11.97 26 206 0 20 5595 25 58896 12051 2.9 17 6 2 6 25% 17070 78909 16653 49%
c = 12.17 26 206 0 20 5595 25 58896 12051 2.9 17 6 2 6 25% 17350 78909 16513 48%
c d 12.18 26 206 0 20 5595 25 58896 11900 2.9 17 6 2 6 25% 17030 78909 16512 48%
c t 12.19 26 206 0 20 5595 25 58896 11900 2.9 17 6 2 6 25% 16868 78909 16512 48%
c f 12.23 26 206 0 20 5595 25 58896 11900 2.9 17 6 2 6 25% 16908 78693 16545 48%
c c 12.27 26 206 0 20 5595 25 58896 11897 2.9 17 6 2 6 25% 16917 78683 16543 48%
c d 12.28 26 206 0 20 5595 25 58896 11897 2.9 17 6 2 6 25% 16913 78683 16543 48%
c u 12.32 26 206 0 20 5595 25 58896 11096 2.9 17 6 2 6 25% 16920 78683 16543 48%
c v 12.35 26 206 0 20 5595 25 58896 10759 2.9 17 6 2 6 25% 16921 78683 16543 48%
c w 12.38 26 206 0 20 5595 25 58896 10739 2.9 17 6 2 6 25% 16921 78683 16543 48%
c x 12.45 26 206 0 20 5595 25 58896 10738 2.9 17 6 2 6 25% 16936 78401 16543 48%
c = 12.65 26 206 0 20 5595 25 58896 10738 2.9 17 6 2 6 25% 17378 78401 16322 48%
c d 12.66 26 206 0 20 5595 25 58896 10573 2.9 17 6 2 6 25% 16907 78401 16321 48%
c t 12.67 26 206 0 20 5595 25 58896 10573 2.9 17 6 2 6 25% 16812 78401 16321 48%
c
c  seconds   switched     rate         size/glue tier1    binary          remaining
c         MB   reductions   conflicts        size  tier2      irredundant
c           level   restarts      redundant    glue   trail          variables
c
c f 12.69 26 206 0 20 5595 25 58896 10573 2.9 17 6 2 6 25% 16853 78225 16345 48%
c - 13.05 26 202 0 21 5901 25 62670 12676 2.9 17 6 2 6 25% 16898 78225 16345 48%
c - 13.51 26 197 0 22 6307 25 67252 15092 2.9 17 6 2 5 25% 16981 78224 16345 48%
c o 13.89 26 194 0 22 6627 24 70861 18285 2.9 17 6 2 5 25% 17010 78222 16345 48%
c - 14.06 26 194 0 23 6784 25 71942 17053 2.9 17 6 2 5 25% 17021 78222 16345 48%
c - 14.69 26 189 0 24 7362 25 76737 18901 2.9 18 6 2 5 25% 17097 78218 16345 48%
c d 15.18 26 188 0 24 7780 25 79949 21691 2.9 18 6 2 5 25% 17103 78212 16324 48%
c u 15.25 26 188 0 24 7780 25 79949 18525 2.9 18 6 2 5 25% 17128 78212 16324 48%
c v 15.31 26 188 0 24 7780 25 79949 16754 2.9 18 6 2 5 25% 17134 78212 16324 48%
c w 15.35 26 188 0 24 7780 25 79949 16754 2.9 18 6 2 5 25% 17134 78212 16324 48%
c x 15.41 26 188 0 24 7780 25 79949 16744 2.9 18 6 2 5 25% 17265 75661 16324 48%
c = 15.60 26 188 0 24 7780 25 79949 16744 2.9 18 6 2 5 25% 17625 75661 16144 47%
c d 15.61 26 188 0 24 7780 25 79949 16557 2.9 18 6 2 5 25% 17222 75661 16143 47%
c t 15.62 26 188 0 24 7780 25 79949 16557 2.9 18 6 2 5 25% 17105 75661 16143 47%
c f 15.64 26 188 0 24 7780 25 79949 16557 2.9 18 6 2 5 25% 17124 75559 16157 47%
c u 15.71 26 188 0 24 7780 25 79949 15482 2.9 18 6 2 5 25% 17133 75559 16157 47%
c v 15.75 26 188 0 24 7780 25 79949 15011 2.9 18 6 2 5 25% 17134 75559 16157 47%
c w 15.82 26 188 0 24 7780 25 79949 14990 2.9 18 6 2 5 25% 17134 75559 16157 47%
c x 15.89 26 188 0 24 7780 25 79949 14988 2.9 18 6 2 5 25% 17180 74514 16157 47%
c = 16.23 26 188 0 24 7780 25 79949 14988 2.9 18 6 2 5 25% 17684 74490 15903 46%
c
c  seconds   switched     rate         size/glue tier1    binary          remaining
c         MB   reductions   conflicts        size  tier2      irredundant
c           level   restarts      redundant    glue   trail          variables
c
c d 16.24 26 188 0 24 7780 25 79949 14662 2.9 18 6 2 5 25% 17154 74490 15903 46%
c t 16.25 26 188 0 24 7780 25 79949 14662 2.9 18 6 2 5 25% 17084 74490 15903 46%
c f 16.27 26 188 0 24 7780 25 79949 14662 2.9 18 6 2 5 25% 17108 74378 15919 47%
c - 16.45 26 186 0 25 7917 25 81635 14537 2.9 18 6 2 5 25% 17141 74377 15919 47%
c i 16.45 26 186 0 25 7917 25 81704 14581 2.9 18 6 2 5 25% 17146 74377 15918 47%
c - 17.14 26 183 0 26 8392 24 86635 17093 2.9 18 6 2 5 26% 17201 74377 15918 47%
c - 17.99 26 178 0 27 8857 24 91734 19607 3.0 18 6 2 5 26% 17258 74377 15918 47%
c s 18.56 26 177 0 27 9261 24 95807 23329 3.0 19 6 2 5 26% 17315 73352 15918 47%
c e 18.67 26 177 0 27 9261 24 95807 23329 3.0 19 6 2 5 26% 14053 83620 13800 40%
c 2 18.67 26 177 0 27 9261 24 95807 23329 3.0 19 6 2 5 26% 14047 83620 13800 40%
c s 18.69 26 177 0 27 9261 24 95807 23329 3.0 19 6 2 5 26% 14088 82194 13800 40%
c e 18.71 26 177 0 27 9261 24 95807 23329 3.0 19 6 2 5 26% 14007 82363 13770 40%
c ^ 18.71 26 177 0 27 9261 24 95807 23329 3.0 19 6 2 5 26% 14007 82363 13770 40%
c - 18.89 26 176 0 28 9419 24 96930 16411 3.0 19 6 2 5 26% 14013 82363 13770 40%
c - 19.79 26 172 0 29 9956 24 102221 19106 3.0 19 6 2 5 26% 14065 82362 13770 40%
c c 20.32 26 171 0 29 10245 24 104556 21280 3.0 19 6 2 5 27% 14095 82320 13763 40%
c d 20.33 26 171 0 29 10245 24 104556 21254 3.0 19 6 2 5 27% 14081 82320 13763 40%
c u 20.40 26 171 0 29 10245 24 104556 18169 3.0 19 6 2 5 27% 14108 82320 13763 40%
c v 20.47 26 171 0 29 10245 24 104556 16529 3.0 19 6 2 5 27% 14108 82320 13763 40%
c w 20.52 26 171 0 29 10245 24 104556 16527 3.0 19 6 2 5 27% 14108 82320 13763 40%
c
c  seconds   switched      rate          size/glue tier1    binary          remaining
c         MB   reductions    conflicts         size  tier2      irredundant
c           level   restarts        redundant    glue   trail          variables
c
c x 20.60 26 171 0 29 10245 24 104556 16522 3.0 19 6 2 5 27% 14248 81623 13763 40%
c = 21.00 26 171 0 29 10245 24 104556 16522 3.0 19 6 2 5 27% 14316 81623 13729 40%
c d 21.00 26 171 0 29 10245 24 104556 16491 3.0 19 6 2 5 27% 14233 81623 13729 40%
c t 21.02 26 171 0 29 10245 24 104556 16491 3.0 19 6 2 5 27% 14114 81623 13729 40%
c f 21.11 26 171 0 29 10245 24 104556 16491 3.0 19 6 2 5 27% 14125 81536 13737 40%
c u 21.18 26 171 0 29 10245 24 104556 15689 3.0 19 6 2 5 27% 14133 81536 13737 40%
c v 21.22 26 171 0 29 10245 24 104556 15339 3.0 19 6 2 5 27% 14133 81536 13737 40%
c w 21.32 26 171 0 29 10245 24 104556 15304 3.0 19 6 2 5 27% 14133 81536 13737 40%
c x 21.39 26 171 0 29 10245 24 104556 15300 3.0 19 6 2 5 27% 14151 81363 13737 40%
c = 21.79 26 171 0 29 10245 24 104556 15300 3.0 19 6 2 5 27% 14179 81349 13722 40%
c d 21.79 26 171 0 29 10245 24 104556 15292 3.0 19 6 2 5 27% 14147 81349 13722 40%
c t 21.80 26 171 0 29 10245 24 104556 15292 3.0 19 6 2 5 27% 14121 81349 13722 40%
c - 22.17 26 169 0 30 10500 24 107606 16167 3.0 19 6 2 5 27% 14152 81349 13722 40%
c o 22.65 26 168 0 30 10803 24 110861 19172 3.0 19 6 2 5 27% 14182 81349 13722 40%
c - 23.01 26 168 0 31 11073 24 113083 18822 3.0 19 7 2 5 27% 14198 81349 13722 40%
c - 23.93 26 165 0 32 11731 24 118651 19725 3.0 20 7 1 5 27% 14211 81349 13722 40%
c - 24.69 26 162 0 33 12209 23 124309 20913 3.0 20 7 1 5 28% 14259 81349 13722 40%
c - 25.31 26 161 0 34 12641 23 130053 21835 3.0 20 7 1 5 28% 14308 81348 13722 40%
c b 25.77 26 160 0 34 12968 23 132786 24404 3.0 20 7 1 5 28% 14320 81348 13721 40%
c u 25.82 26 160 0 34 12968 23 132786 22570 3.0 20 7 1 5 28% 14331 81348 13721 40%
c
c  seconds   switched      rate          size/glue tier1    binary          remaining
c         MB   reductions    conflicts         size  tier2      irredundant
c           level   restarts        redundant    glue   trail          variables
c
c v 25.91 26 160 0 34 12968 23 132786 19061 3.0 20 7 1 5 28% 14340 81348 13721 40%
c w 25.98 26 160 0 34 12968 23 132786 19046 3.0 20 7 1 5 28% 14340 81348 13721 40%
c x 26.07 26 160 0 34 12968 23 132786 19027 3.0 20 7 1 5 28% 14364 80276 13721 40%
c = 26.55 26 160 0 34 12968 23 132786 19027 3.0 20 7 1 5 28% 14372 80276 13717 40%
c d 26.56 26 160 0 34 12968 23 132786 19027 3.0 20 7 1 5 28% 14359 80276 13717 40%
c t 26.57 26 160 0 34 12968 23 132786 19027 3.0 20 7 1 5 28% 14320 80276 13717 40%
c u 26.66 26 160 0 34 12968 23 132786 18526 3.0 20 7 1 5 28% 14323 80276 13717 40%
c v 26.73 26 160 0 34 12968 23 132786 17707 3.0 20 7 1 5 28% 14327 80276 13717 40%
c w 26.86 26 160 0 34 12968 23 132786 17555 3.0 20 7 1 5 28% 14327 80276 13717 40%
c x 26.98 26 160 0 34 12968 23 132786 17543 3.0 20 7 1 5 28% 14399 79286 13717 40%
c t 27.48 26 160 0 34 12968 23 132786 17543 3.0 20 7 1 5 28% 14376 79286 13717 40%
c - 27.77 26 159 0 35 13157 23 135884 17198 2.9 20 7 1 5 28% 14405 79284 13717 40%
c - 28.46 26 159 0 36 13632 23 141800 19512 3.0 21 7 1 5 28% 14444 79281 13717 40%
c - 29.10 26 159 0 37 14064 22 147800 21489 2.9 20 7 1 5 28% 14480 79279 13717 40%
c i 29.43 26 157 0 37 14311 22 150831 24329 2.9 20 7 1 5 28% 14497 79279 13716 40%
c - 29.83 26 156 0 38 14601 22 153882 23044 2.9 21 7 1 5 28% 14510 79279 13716 40%
c i 29.89 26 156 0 38 14632 22 154561 23666 2.9 21 7 1 5 28% 14516 79279 13715 40%
c i 30.35 26 155 0 38 14795 22 157704 26562 2.9 21 7 1 5 28% 14533 79277 13714 40%
c s 30.42 26 155 0 38 14816 22 157834 26682 2.9 21 7 1 5 28% 14535 79224 13714 40%
c e 30.64 26 155 0 38 14816 22 157834 26682 2.9 21 7 1 5 28% 10250 95776 11690 34%
c
c  seconds   switched      rate          size/glue tier1    binary          remaining
c         MB   reductions    conflicts         size  tier2      irredundant
c           level   restarts        redundant    glue   trail          variables
c
c 2 30.64 26 155 0 38 14816 22 157834 26682 2.9 21 7 1 5 28% 10247 95776 11690 34%
c s 30.71 26 155 0 38 14816 22 157834 26682 2.9 21 7 1 5 28% 10274 94008 11690 34%
c e 30.76 26 155 0 38 14816 22 157834 26682 2.9 21 7 1 5 28% 10208 94275 11654 34%
c ^ 30.76 26 155 0 38 14816 22 157834 26682 2.9 21 7 1 5 28% 10208 94275 11654 34%
c i 30.88 26 154 0 38 14842 21 158493 18763 2.9 21 7 1 5 28% 10215 94275 11653 34%
c - 31.28 26 154 0 39 14963 21 160046 17370 2.9 21 7 1 5 28% 10217 94263 11653 34%
c o 31.54 26 153 0 39 15035 21 160868 18137 2.9 21 7 1 5 28% 10220 94263 11653 34%
c u 32.94 26 153 0 39 15404 21 164741 19986 2.9 21 7 1 5 29% 10264 94263 11653 34%
c v 33.16 26 153 0 39 15404 21 164741 17173 2.9 21 7 1 5 29% 10269 94263 11653 34%
c w 33.37 26 153 0 39 15404 21 164741 17166 2.9 21 7 1 5 29% 10269 94263 11653 34%
c x 33.55 26 153 0 39 15404 21 164741 17165 2.9 21 7 1 5 29% 10281 94089 11653 34%
c t 33.59 26 153 0 39 15404 21 164741 17165 2.9 21 7 1 5 29% 10208 94089 11653 34%
c f 33.80 26 153 0 39 15404 21 164741 17165 2.9 21 7 1 5 29% 10201 93559 11677 34%
c u 33.94 26 153 0 39 15404 21 164741 16839 2.9 21 7 1 5 29% 10208 93559 11677 34%
c v 34.09 26 153 0 39 15404 21 164741 16223 2.9 21 7 1 5 29% 10208 93559 11677 34%
c w 34.41 26 153 0 39 15404 21 164741 16164 2.9 21 7 1 5 29% 10208 93559 11677 34%
c x 34.56 26 153 0 39 15404 21 164741 16164 2.9 21 7 1 5 29% 10208 93538 11677 34%
c t 35.32 26 153 0 39 15404 21 164741 16164 2.9 21 7 1 5 29% 10206 93538 11677 34%
c - 35.70 26 152 0 40 15490 21 166290 14848 2.9 21 7 1 5 29% 10211 93538 11677 34%
c i 35.70 26 152 0 40 15495 21 166689 15170 2.9 21 7 1 5 28% 10220 93536 11676 34%
c
c  seconds   switched      rate          size/glue tier1    binary          remaining
c         MB   reductions    conflicts         size  tier2      irredundant
c           level   restarts        redundant    glue   trail          variables
c
c - 37.80 26 151 0 41 16124 21 172614 17740 2.9 21 7 1 5 29% 10231 93536 11676 34%
c - 39.45 27 150 0 42 16678 21 179017 20186 2.9 21 8 1 5 29% 10269 93536 11676 34%
c - 41.37 27 149 0 43 17291 21 185497 21883 2.8 22 8 1 5 29% 10286 93535 11676 34%
c i 42.58 27 148 0 43 17679 21 189917 26019 2.8 22 8 1 5 29% 10297 93535 11675 34%
c - 43.24 27 147 0 44 17894 21 192054 23314 2.8 22 8 1 5 29% 10296 93535 11675 34%
c i 43.98 27 147 0 44 18138 21 194968 26010 2.8 22 8 1 5 30% 10308 93534 11674 34%
c i 44.58 27 146 0 44 18320 21 197482 28298 2.8 22 8 1 5 29% 10319 93534 11673 34%
c - 44.86 27 146 0 45 18417 21 198687 24453 2.8 22 8 1 5 30% 10310 93534 11673 34%
c u 45.55 27 146 0 45 18596 21 200518 24201 2.8 22 8 1 5 30% 10345 93484 11673 34%
c v 45.78 27 146 0 45 18596 21 200518 20264 2.8 22 8 1 5 30% 10348 93484 11673 34%
c w 46.06 27 146 0 45 18596 21 200518 19892 2.8 22 8 1 5 30% 10348 93484 11673 34%
c d 46.07 27 146 0 45 18596 21 200518 19892 2.8 22 8 1 5 30% 10344 93484 11671 34%
c t 46.10 27 146 0 45 18596 21 200518 19892 2.8 22 8 1 5 30% 10324 93484 11671 34%
c u 46.25 27 146 0 45 18596 21 200518 19251 2.8 22 8 1 5 30% 10328 93484 11671 34%
c v 46.40 27 146 0 45 18596 21 200518 18228 2.8 22 8 1 5 30% 10329 93484 11671 34%
c w 46.63 27 146 0 45 18596 21 200518 18047 2.8 22 8 1 5 30% 10329 93484 11671 34%
c x 46.87 27 146 0 45 18596 21 200518 18006 2.8 22 8 1 5 30% 10396 91782 11671 34%
c t 46.89 27 146 0 45 18596 21 200518 18006 2.8 22 8 1 5 30% 10393 91782 11671 34%
c i 46.99 27 145 0 45 18615 21 201000 18410 2.8 22 8 1 5 30% 10404 91782 11670 34%
c - 47.75 27 144 0 46 18851 20 205396 19046 2.8 22 8 1 5 29% 10418 91781 11670 34%
c
c  seconds   switched      rate          size/glue tier1    binary          remaining
c         MB   reductions    conflicts         size  tier2      irredundant
c           level   restarts        redundant    glue   trail          variables
c
c - 49.21 27 142 0 47 19354 20 212179 21704 2.8 22 8 1 5 29% 10438 91780 11670 34%
c - 50.68 27 139 0 48 19799 20 219034 23584 2.8 22 8 1 5 29% 10471 91779 11670 34%
c i 51.23 27 139 0 48 19959 19 220883 25302 2.8 22 8 1 5 29% 10478 91779 11669 34%
c o 51.24 27 139 0 48 19959 19 220883 25302 2.8 22 8 1 5 29% 10478 91779 11669 34%
c - 52.53 27 138 0 49 20369 19 225965 25007 2.8 22 8 1 5 29% 10486 91778 11669 34%
c - 54.32 27 135 0 50 20923 19 232965 26371 2.8 22 8 1 5 29% 10507 91778 11669 34%
c i 55.04 27 134 0 50 21126 19 236249 29474 2.8 22 8 1 5 29% 10517 91778 11668 34%
c i 55.47 27 135 0 50 21282 19 237511 30654 2.8 22 8 1 5 29% 10528 91777 11667 34%
c i 55.47 27 135 0 50 21282 19 237513 30655 2.8 22 8 1 5 29% 10528 91777 11666 34%
c s 56.00 27 134 0 50 21457 19 239940 32924 2.8 22 8 1 5 29% 10534 91453 11666 34%
c e 56.33 30 134 0 50 21457 19 239940 32924 2.8 22 8 1 5 29% 6279 121765 9441 28%
c 2 56.33 30 134 0 50 21457 19 239940 32924 2.8 22 8 1 5 29% 6262 121765 9441 28%
c s 56.45 30 134 0 50 21457 19 239940 32924 2.8 22 8 1 5 29% 6282 118546 9441 28%
c e 56.57 30 134 0 50 21457 19 239940 32924 2.8 22 8 1 5 29% 6190 119604 9368 27%
c ! 56.57 30 134 0 50 21457 19 239940 32924 2.8 22 8 1 5 29% 6190 119604 9368 27%
c - 56.64 30 134 0 51 21462 19 240038 15712 2.8 22 8 1 5 29% 6190 119604 9368 27%
c u 56.81 30 134 0 51 21487 19 240170 14293 2.8 22 8 1 5 29% 6216 119604 9367 27%
c v 56.92 30 134 0 51 21487 19 240170 12501 2.8 22 8 1 5 29% 6218 119604 9367 27%
c w 56.98 30 134 0 51 21487 19 240170 12373 2.8 22 8 1 5 29% 6218 119604 9367 27%
c x 57.32 30 134 0 51 21487 19 240170 12355 2.8 22 8 1 5 29% 6293 118584 9367 27%
c
c  seconds   switched      rate          size/glue tier1    binary         remaining
c         MB   reductions    conflicts         size  tier2     irredundant
c           level   restarts        redundant    glue   trail         variables
c
c = 58.14 30 134 0 51 21487 19 240170 12355 2.8 22 8 1 5 29% 6304 118525 9359 27%
c d 58.16 30 134 0 51 21487 19 240170 12349 2.8 22 8 1 5 29% 6289 118525 9359 27%
c t 58.17 30 134 0 51 21487 19 240170 12349 2.8 22 8 1 5 29% 6165 118525 9359 27%
c f 58.38 30 134 0 51 21487 19 240170 12349 2.8 22 8 1 5 29% 6545 112955 9551 28%
c u 58.52 30 134 0 51 21487 19 240170 12049 2.8 22 8 1 5 29% 6551 112955 9551 28%
c v 58.59 30 134 0 51 21487 19 240170 11747 2.8 22 8 1 5 29% 6553 112955 9551 28%
c w 58.63 30 134 0 51 21487 19 240170 11714 2.8 22 8 1 5 29% 6553 112955 9551 28%
c x 58.94 30 134 0 51 21487 19 240170 11714 2.8 22 8 1 5 29% 6553 112829 9551 28%
c t 58.96 30 134 0 51 21487 19 240170 11714 2.8 22 8 1 5 29% 6551 112829 9551 28%
c f 59.15 30 134 0 51 21487 19 240170 11714 2.8 22 8 1 5 29% 6960 111095 9618 28%
c i 59.15 30 134 0 51 21487 19 240170 11714 2.8 22 8 1 5 29% 6960 111095 9618 28%
c i 59.92 30 133 0 51 21714 19 244607 15787 2.8 22 8 1 5 29% 6975 111094 9617 28%
c - 60.28 30 133 0 52 21799 18 247181 15323 2.8 22 8 1 5 29% 6971 111094 9617 28%
c i 60.61 30 132 0 52 21900 18 249267 17185 2.7 22 8 1 5 29% 6978 111094 9616 28%
c - 61.92 38 132 0 53 22327 18 254392 18547 2.7 22 8 1 5 30% 6982 111093 9616 28%
c i 62.32 38 131 0 53 22458 18 256403 20416 2.7 22 8 1 5 30% 6989 111093 9613 28%
c - 63.42 38 130 0 54 22794 18 261675 20502 2.7 21 8 1 5 30% 6982 111093 9613 28%
c i 64.87 39 129 0 54 23297 18 267344 25751 2.7 21 8 1 5 30% 6991 111093 9612 28%
c - 65.11 39 128 0 55 23365 18 269028 22123 2.6 21 8 1 5 29% 6991 111093 9612 28%
c i 65.15 36 128 0 55 23376 18 269573 22600 2.6 21 8 1 5 29% 6998 111093 9611 28%
c
c  seconds   switched      rate          size/glue tier1    binary         remaining
c         MB   reductions    conflicts         size  tier2     irredundant
c           level   restarts        redundant    glue   trail         variables
c
c i 66.24 39 126 0 55 23713 17 275500 28060 2.6 21 8 1 5 29% 7015 111092 9610 28%
c - 66.43 39 126 0 56 23763 17 276445 23249 2.6 21 8 1 5 29% 7000 111091 9610 28%
c i 66.70 39 125 0 56 23858 17 277584 24293 2.6 21 8 1 5 29% 7005 111091 9609 28%
c i 67.20 39 125 0 56 24002 17 280084 26601 2.6 21 8 1 5 29% 7015 111089 9607 28%
c u 68.17 39 124 0 56 24252 17 283836 28643 2.6 21 8 1 5 29% 7060 110967 9606 28%
c v 68.53 36 124 0 56 24252 17 283836 23771 2.6 21 8 1 5 29% 7072 110967 9606 28%
c w 68.78 38 124 0 56 24252 17 283836 23664 2.6 21 8 1 5 29% 7072 110967 9606 28%
c = 69.63 38 124 0 56 24252 17 283836 23664 2.6 21 8 1 5 29% 7084 110953 9600 28%
c d 69.64 38 124 0 56 24252 17 283836 23662 2.6 21 8 1 5 29% 7065 110953 9600 28%
c t 69.66 38 124 0 56 24252 17 283836 23662 2.6 21 8 1 5 29% 7044 110953 9600 28%
c f 69.84 32 124 0 56 24252 17 283836 23662 2.6 21 8 1 5 29% 7401 109807 9641 28%
c u 69.99 36 124 0 56 24252 17 283836 23308 2.6 21 8 1 5 29% 7405 109807 9641 28%
c v 70.19 37 124 0 56 24252 17 283836 22344 2.6 21 8 1 5 29% 7410 109807 9641 28%
c w 70.36 37 124 0 56 24252 17 283836 22270 2.6 21 8 1 5 29% 7410 109807 9641 28%
c x 70.53 38 124 0 56 24252 17 283836 22270 2.6 21 8 1 5 29% 7410 109643 9641 28%
c = 71.38 38 124 0 56 24252 17 283836 22270 2.6 21 8 1 5 29% 7414 109621 9637 28%
c d 71.40 38 124 0 56 24252 17 283836 22219 2.6 21 8 1 5 29% 7410 109621 9637 28%
c t 71.42 38 124 0 56 24252 17 283836 22219 2.6 21 8 1 5 29% 7407 109621 9637 28%
c f 71.54 32 124 0 56 24252 17 283836 22219 2.6 21 8 1 5 29% 7411 109597 9638 28%
c i 71.55 34 124 0 56 24252 17 283836 22219 2.6 21 8 1 5 29% 7411 109597 9638 28%
c
c  seconds   switched      rate          size/glue tier1    binary         remaining
c         MB   reductions    conflicts         size  tier2     irredundant
c           level   restarts        redundant    glue   trail         variables
c
c - 71.58 36 124 0 57 24260 17 283930 17890 2.6 21 8 1 5 29% 7389 109597 9638 28%
c i 71.60 36 124 0 57 24263 17 284055 17997 2.6 21 8 1 5 29% 7393 109597 9637 28%
c i 71.88 37 123 0 57 24364 17 285923 19707 2.6 21 8 1 5 29% 7406 109597 9636 28%
c i 71.94 37 123 0 57 24378 17 286307 20055 2.6 21 8 1 5 29% 7407 109597 9635 28%
c i 72.26 38 123 0 57 24544 17 288707 22235 2.5 21 8 1 5 29% 7419 109597 9633 28%
c o 72.52 38 123 0 57 24672 17 290887 24262 2.5 21 8 1 5 29% 7422 109597 9633 28%
c - 72.60 38 123 0 58 24710 17 291479 19872 2.5 21 8 1 5 29% 7398 109597 9633 28%
c i 72.63 38 122 0 58 24719 16 292057 20331 2.5 20 8 1 5 29% 7412 109597 9631 28%
c i 72.67 38 122 0 58 24747 16 292635 20845 2.5 20 8 1 5 29% 7414 109597 9630 28%
c i 72.71 38 122 0 58 24772 16 292982 21162 2.5 20 8 1 5 29% 7416 109597 9628 28%
c i 72.85 38 122 0 58 24854 16 294546 22592 2.5 20 8 1 5 29% 7421 109597 9627 28%
c i 72.96 38 121 0 58 24939 16 296120 24048 2.5 20 8 1 5 29% 7428 109597 9626 28%
c i 72.97 38 121 0 58 24943 16 296400 24290 2.5 20 8 1 5 29% 7428 109597 9625 28%
c - 73.11 39 120 0 59 25086 16 299094 21544 2.5 20 8 1 5 28% 7374 109597 9625 28%
c i 73.31 36 118 0 59 25310 16 302687 24839 2.5 20 8 1 5 28% 7390 109596 9624 28%
c i 73.35 36 118 0 59 25347 16 303454 25518 2.5 20 8 1 5 28% 7392 109596 9623 28%
c i 73.42 37 117 0 59 25454 16 304829 26753 2.5 20 8 1 5 28% 7397 109596 9622 28%
c - 73.50 37 116 0 60 25505 15 306776 21913 2.5 20 8 1 5 27% 7393 109596 9622 28%
c i 73.54 37 115 0 60 25561 15 307854 22884 2.5 20 8 1 5 27% 7396 109596 9621 28%
c i 73.59 37 114 0 60 25576 15 308848 23787 2.5 20 8 1 5 27% 7401 109596 9620 28%
c
c  seconds   switched      rate          size/glue tier1    binary         remaining
c         MB   reductions    conflicts         size  tier2     irredundant
c           level   restarts        redundant    glue   trail         variables
c
c i 73.59 37 114 0 60 25577 15 308952 23856 2.5 20 8 1 5 27% 7406 109596 9619 28%
c i 73.62 37 113 0 60 25614 15 310248 25020 2.4 20 8 1 5 27% 7418 109596 9618 28%
c i 73.63 37 113 0 60 25614 15 310646 25316 2.4 20 8 1 5 26% 7427 109595 9617 28%
c i 73.63 37 113 0 60 25614 15 310666 25327 2.4 20 8 1 5 26% 7430 109595 9615 28%
c i 73.63 37 113 0 60 25614 15 310680 25337 2.4 20 8 1 5 26% 7431 109595 9614 28%
c i 73.63 37 113 0 60 25614 15 310681 25337 2.4 20 8 1 5 26% 7431 109595 9612 28%
c i 73.63 37 113 0 60 25614 15 310688 25340 2.4 20 8 1 5 26% 7433 109595 9592 28%
c } 73.63 37 113 0 60 25614 15 310690 25340 2.4 20 8 1 5 26% 7433 109595 9572 28%
c 0 73.63 37 113 0 60 25614 15 310690 25340 2.4 20 8 1 5 26% 7433 109595 9572 28%
c
c ---- [ result ] ------------------------------------------------------------
c
s UNSATISFIABLE
c
c ---- [ profiling ] ---------------------------------------------------------
c
c          52.49   71.29 %  search
c          52.49   71.29 %  focused
c          20.70   28.11 %  simplify
c          19.33   26.26 %  probe
c           8.59   11.67 %  vivify
c           7.32    9.94 %  sweep
c           1.76    2.39 %  factor
c           1.57    2.13 %  eliminate
c           0.77    1.05 %  substitute
c           0.57    0.77 %  congruence
c           0.39    0.52 %  preprocess
c           0.37    0.50 %  reduce
c           0.33    0.45 %  subsume
c           0.22    0.29 %  transitive
c           0.17    0.24 %  fastel
c           0.11    0.14 %  backbone
c           0.03    0.04 %  lucky
c           0.02    0.03 %  parse
c =============================================
c          73.63  100.00 %  total
c
c ---- [ statistics ] --------------------------------------------------------
c
c chronological:                         7576                2 %  conflicts
c conflicts:                           310690             4219.73 per second
c congruent:                             2753                8 %  variables
c decisions:                          5677050               18.27 per conflict
c eliminated:                           20058               59 %  variables
c factored:                              4368               13 %  variables
c fast_eliminated:                       8910               44 %  eliminated
c fast_strengthened:                      307                4 %  per strengthened
c fast_subsumed:                          264                1 %  per subsumed
c iterations:                              46                0 %  variables
c propagations:                     253356797          3441038    per second
c reductions:                              60             5178    interval
c reordered:                                8            38836    interval
c restarts:                             25614               12    interval
c strengthened:                          7281                0 %  checks
c substituted:                           8860               26 %  variables
c subsumed:                             23065                0 %  checks
c switched:                                 0                0    interval
c vivified:                            116876               14 %  checks
c
c ---- [ glue usage ] --------------------------------------------------------
c
c focused glue 1 used 510032 clauses 55.77% accumulated 55.77% tier1
c focused glue 2 used 179274 clauses 19.60% accumulated 75.37%
c focused glue 3 used  79920 clauses  8.74% accumulated 84.11%
c focused glue 4 used  39333 clauses  4.30% accumulated 88.41%
c focused glue 5 used  24198 clauses  2.65% accumulated 91.06% tier2
c
c ---- [ resources ] ---------------------------------------------------------
c
c maximum-resident-set-size:         40955904 bytes         39 MB
c process-time:                         1m 14s              73.63 seconds
c
c ---- [ shutting down ] -----------------------------------------------------
c
c exit 20
